
        $ From http://www.csplib.org/Problems/prob009/data/helmut.pdf
        $ Problem number 203
        $ Sequence length : 25
        language ESSENCE' 1.0
        letting sizemaster be 634
        letting sizes be sequence(15,17,24,26,33,43,44,54,57,60,63,73,79,81,88,109,119,160,161,172,173,227,234,235,239)
        